60 30
0 0 14 14
14 0 14 12
28 0 2 12
30 0 13 12
43 0 5 12
14 12 17 9
48 0 11 9
48 9 8 9
14 21 24 9
31 12 9 8
56 9 3 8
0 14 9 6
40 12 3 6
38 21 17 4
0 20 8 4
38 25 18 3
0 24 14 3
48 18 12 3
40 18 6 3
43 12 5 3
0 27 13 2
9 14 5 2
43 15 2 2
38 28 14 2
9 16 5 1
8 20 6 1
